# Calculate accessible volume of a NT using MC and neon probe
# Based on the ideas of:
# http://dx.doi.org/10.1016/j.jcis.2010.05.001

# ------- ATTENTION -------
#
# Add an EXTRA atom type to your topology, with parameters (real units):
# Masses
#        X  20.180  # Ne
# Pair Coeffs
#        X 0.0694  2.78  # Ne
#
# Before running, generate Nsteps random numbers with:
# rm -f rngs.txt; for s in $(seq 1 Nsteps); do echo $RANDOM >> rngs.txt ; done

# ----------- Variables ------------

variable Nsteps equal XXX    # number of MC steps for integration
variable seed file rngs.txt    # file containing the random seeds to generate the positions

variable bx equal XXX # size of box in x (from -bx to bx)
variable by equal XXX # size of box in y (from -by to by)

variable Nin  equal 0  # number of accepted insertions
variable Nout equal 0  # number of rejected insertions

# ----------- Settings ------------

# General settings
dimension    3
boundary     p p p
units        real

# Interatomic potential (adjust if needed)
atom_style   full
bond_style   harmonic
angle_style  harmonic
pair_style   lj/cut 20.0
pair_modify  mix arithmetic
neigh_modify delay 0 every 1 one 10000

# Initial structure
read_data    XXX.lmp # ATTENTION: change to your topology name and remember including the extra atom type!

# Define region
region       plpd block -${bx} ${bx} -${by} ${by} EDGE EDGE # ATTENTION: check if your NT axis is z or change it

# Define NT group
group        NT molecule 1

# ---------- Compute accessible volume ------------

thermo ${Nsteps}
variable clength equal lz # ATTENTION: change z to your NT axis

# DEBUG
#dump    1 all custom 1 debug.lammpstrj id element x y z
#dump_modify 1 sort id element Si O Ne

# Main loop
variable a loop ${Nsteps}
label loop

reset_timestep $a

# Insert Ne atom
create_atoms 3 random 1 ${seed} plpd # ATTENTION: change the "XXX" to your new atom type!

# Create group for Ne atom
group        Ne type 3 # ATTENTION: change this value to the one correspondent to the Ar type

# Compute to get the interaction energy
compute intEn Ne group/group NT
thermo_style custom step lz c_intEn # ATTENTION: change z to your NT axis

# Compute potential energy
run 0

# Check energy and increase counter
variable PotEng equal c_intEn

if "${PotEng} <= 0.0" then &
  "variable Nin equal $(v_Nin+1)" &
else &
  "variable Nout equal $(v_Nout+1)"

# Delete Ne atom
delete_atoms group Ne

# Change seed to insert in a different position next time
next seed

uncompute intEn

next a
jump volume_box.in loop

# DEBUG
#undump 1

# Calculate the volumes
variable boxvol equal "4 * v_bx * v_by * v_clength"
variable avol equal "v_boxvol * (v_Nin/v_Nsteps)"

# Print output
print ""
print "------ Accessible volume info ------"
print ""
print "Number points generated = ${Nsteps}"
print "Number points inside = ${Nin}"
print "Number points outside = ${Nout}"
print "Box dimensions: x = $(2*v_bx), y = $(2*v_by), z = ${clength}"
print ""
print "Box volume (A^3) = ${boxvol}"
print ""
print "Acessible volume (A^3) = ${avol}"
print ""
print "------------------------------------"
print ""
