# Calculate accessible volume of a NT using MC and neon probe
# Based on the ideas of:
# http://dx.doi.org/10.1016/j.jcis.2010.05.001

# ------- ATTENTION -------
#
# Add an EXTRA atom type to your topology, with parameters (real units):
# Masses
#        X  20.180  # Ne
# Pair Coeffs
#        X 0.0694  2.78  # Ne
#
# Before running, generate Nsteps random numbers with:
# rm -f rngs.txt; for s in $(seq 1 Nsteps); do echo $RANDOM >> rngs.txt ; done

# ----------- Variables ------------

variable Nsteps equal 10000    # number of MC steps for integration
variable seed file rngs.txt    # file containing the random seeds to generate the positions

variable NTradius equal 3.6 # NT radius (cylinder) in angstrom

variable Nin  equal 0  # number of accepted insertions
variable Nout equal 0  # number of rejected insertions

# ----------- Settings ------------

# General settings
dimension    3
boundary     p p p
units        real

# Interatomic potential (adjust if needed)
atom_style   full
bond_style   harmonic
angle_style  harmonic
pair_style   lj/cut 20.0
pair_modify  mix arithmetic
neigh_modify delay 0 every 1 one 100000 page 1000000

# Initial structure
read_data    topo.lmp # ATTENTION: change to your topology name and remember including the extra atom type!

# Define region
region       cyl cylinder z 0.0 0.0 ${NTradius} EDGE EDGE # ATTENTION: check if your NT axis is z or change it

# Define NT group
group        NT molecule 1

# ---------- Compute accessible volume ------------

thermo ${Nsteps}

# DEBUG
dump    1 all custom 1 debug.lammpstrj id element x y z
dump_modify 1 sort id element Si O Ne

# Main loop
variable a loop ${Nsteps}
label loop

# Insert Ne atom
create_atoms 3 random 1 ${seed} cyl # ATTENTION: change the "XXX" to your new atom type!

# Change seed to insert in a different position next time
next seed

next a
jump volume_traj.in loop

# write coords
run 0

# DEBUG
undump 1

